Minimize 
     z_0 + z_1 + z_2 + z_3 + z_4 + z_5 + z_6 + z_7 + z_8 + z_9 + z_10 + z_11 + z_12 + z_13 + z_14 + z_15 + z_16 + z_17 + z_18 + z_19
Subject To 
    ctr_0: 28x_0_0 + 63x_0_1 + 56x_0_2 + 1x_0_3 + 26x_0_4 - 100 z_0 <= 0
    ctr_1: 28x_1_0 + 63x_1_1 + 56x_1_2 + 1x_1_3 + 26x_1_4 - 100 z_1 <= 0
    ctr_2: 28x_2_0 + 63x_2_1 + 56x_2_2 + 1x_2_3 + 26x_2_4 - 100 z_2 <= 0
    ctr_3: 28x_3_0 + 63x_3_1 + 56x_3_2 + 1x_3_3 + 26x_3_4 - 100 z_3 <= 0
    ctr_4: 28x_4_0 + 63x_4_1 + 56x_4_2 + 1x_4_3 + 26x_4_4 - 100 z_4 <= 0
    ctr_5: 28x_5_0 + 63x_5_1 + 56x_5_2 + 1x_5_3 + 26x_5_4 - 100 z_5 <= 0
    ctr_6: 28x_6_0 + 63x_6_1 + 56x_6_2 + 1x_6_3 + 26x_6_4 - 100 z_6 <= 0
    ctr_7: 28x_7_0 + 63x_7_1 + 56x_7_2 + 1x_7_3 + 26x_7_4 - 100 z_7 <= 0
    ctr_8: 28x_8_0 + 63x_8_1 + 56x_8_2 + 1x_8_3 + 26x_8_4 - 100 z_8 <= 0
    ctr_9: 28x_9_0 + 63x_9_1 + 56x_9_2 + 1x_9_3 + 26x_9_4 - 100 z_9 <= 0
    ctr_10: 28x_10_0 + 63x_10_1 + 56x_10_2 + 1x_10_3 + 26x_10_4 - 100 z_10 <= 0
    ctr_11: 28x_11_0 + 63x_11_1 + 56x_11_2 + 1x_11_3 + 26x_11_4 - 100 z_11 <= 0
    ctr_12: 28x_12_0 + 63x_12_1 + 56x_12_2 + 1x_12_3 + 26x_12_4 - 100 z_12 <= 0
    ctr_13: 28x_13_0 + 63x_13_1 + 56x_13_2 + 1x_13_3 + 26x_13_4 - 100 z_13 <= 0
    ctr_14: 28x_14_0 + 63x_14_1 + 56x_14_2 + 1x_14_3 + 26x_14_4 - 100 z_14 <= 0
    ctr_15: 28x_15_0 + 63x_15_1 + 56x_15_2 + 1x_15_3 + 26x_15_4 - 100 z_15 <= 0
    ctr_16: 28x_16_0 + 63x_16_1 + 56x_16_2 + 1x_16_3 + 26x_16_4 - 100 z_16 <= 0
    ctr_17: 28x_17_0 + 63x_17_1 + 56x_17_2 + 1x_17_3 + 26x_17_4 - 100 z_17 <= 0
    ctr_18: 28x_18_0 + 63x_18_1 + 56x_18_2 + 1x_18_3 + 26x_18_4 - 100 z_18 <= 0
    ctr_19: 28x_19_0 + 63x_19_1 + 56x_19_2 + 1x_19_3 + 26x_19_4 - 100 z_19 <= 0
    ctr_20: x_0_0 + x_1_0 + x_2_0 + x_3_0 + x_4_0 + x_5_0 + x_6_0 + x_7_0 + x_8_0 + x_9_0 + x_10_0 + x_11_0 + x_12_0 + x_13_0 + x_14_0 + x_15_0 + x_16_0 + x_17_0 + x_18_0 + x_19_0 = 8
    ctr_21: x_0_1 + x_1_1 + x_2_1 + x_3_1 + x_4_1 + x_5_1 + x_6_1 + x_7_1 + x_8_1 + x_9_1 + x_10_1 + x_11_1 + x_12_1 + x_13_1 + x_14_1 + x_15_1 + x_16_1 + x_17_1 + x_18_1 + x_19_1 = 1
    ctr_22: x_0_2 + x_1_2 + x_2_2 + x_3_2 + x_4_2 + x_5_2 + x_6_2 + x_7_2 + x_8_2 + x_9_2 + x_10_2 + x_11_2 + x_12_2 + x_13_2 + x_14_2 + x_15_2 + x_16_2 + x_17_2 + x_18_2 + x_19_2 = 3
    ctr_23: x_0_3 + x_1_3 + x_2_3 + x_3_3 + x_4_3 + x_5_3 + x_6_3 + x_7_3 + x_8_3 + x_9_3 + x_10_3 + x_11_3 + x_12_3 + x_13_3 + x_14_3 + x_15_3 + x_16_3 + x_17_3 + x_18_3 + x_19_3 = 4
    ctr_24: x_0_4 + x_1_4 + x_2_4 + x_3_4 + x_4_4 + x_5_4 + x_6_4 + x_7_4 + x_8_4 + x_9_4 + x_10_4 + x_11_4 + x_12_4 + x_13_4 + x_14_4 + x_15_4 + x_16_4 + x_17_4 + x_18_4 + x_19_4 = 4
    ctr_25: y_0_0 - x_0_0 <= 0
    ctr_26: y_1_0 - x_1_0 <= 0
    ctr_27: y_2_0 - x_2_0 <= 0
    ctr_28: y_3_0 - x_3_0 <= 0
    ctr_29: y_4_0 - x_4_0 <= 0
    ctr_30: y_5_0 - x_5_0 <= 0
    ctr_31: y_6_0 - x_6_0 <= 0
    ctr_32: y_7_0 - x_7_0 <= 0
    ctr_33: y_8_0 - x_8_0 <= 0
    ctr_34: y_9_0 - x_9_0 <= 0
    ctr_35: y_10_0 - x_10_0 <= 0
    ctr_36: y_11_0 - x_11_0 <= 0
    ctr_37: y_12_0 - x_12_0 <= 0
    ctr_38: y_13_0 - x_13_0 <= 0
    ctr_39: y_14_0 - x_14_0 <= 0
    ctr_40: y_15_0 - x_15_0 <= 0
    ctr_41: y_16_0 - x_16_0 <= 0
    ctr_42: y_17_0 - x_17_0 <= 0
    ctr_43: y_18_0 - x_18_0 <= 0
    ctr_44: y_19_0 - x_19_0 <= 0
    ctr_45: y_0_1 - x_0_1 <= 0
    ctr_46: y_1_1 - x_1_1 <= 0
    ctr_47: y_2_1 - x_2_1 <= 0
    ctr_48: y_3_1 - x_3_1 <= 0
    ctr_49: y_4_1 - x_4_1 <= 0
    ctr_50: y_5_1 - x_5_1 <= 0
    ctr_51: y_6_1 - x_6_1 <= 0
    ctr_52: y_7_1 - x_7_1 <= 0
    ctr_53: y_8_1 - x_8_1 <= 0
    ctr_54: y_9_1 - x_9_1 <= 0
    ctr_55: y_10_1 - x_10_1 <= 0
    ctr_56: y_11_1 - x_11_1 <= 0
    ctr_57: y_12_1 - x_12_1 <= 0
    ctr_58: y_13_1 - x_13_1 <= 0
    ctr_59: y_14_1 - x_14_1 <= 0
    ctr_60: y_15_1 - x_15_1 <= 0
    ctr_61: y_16_1 - x_16_1 <= 0
    ctr_62: y_17_1 - x_17_1 <= 0
    ctr_63: y_18_1 - x_18_1 <= 0
    ctr_64: y_19_1 - x_19_1 <= 0
    ctr_65: y_0_2 - x_0_2 <= 0
    ctr_66: y_1_2 - x_1_2 <= 0
    ctr_67: y_2_2 - x_2_2 <= 0
    ctr_68: y_3_2 - x_3_2 <= 0
    ctr_69: y_4_2 - x_4_2 <= 0
    ctr_70: y_5_2 - x_5_2 <= 0
    ctr_71: y_6_2 - x_6_2 <= 0
    ctr_72: y_7_2 - x_7_2 <= 0
    ctr_73: y_8_2 - x_8_2 <= 0
    ctr_74: y_9_2 - x_9_2 <= 0
    ctr_75: y_10_2 - x_10_2 <= 0
    ctr_76: y_11_2 - x_11_2 <= 0
    ctr_77: y_12_2 - x_12_2 <= 0
    ctr_78: y_13_2 - x_13_2 <= 0
    ctr_79: y_14_2 - x_14_2 <= 0
    ctr_80: y_15_2 - x_15_2 <= 0
    ctr_81: y_16_2 - x_16_2 <= 0
    ctr_82: y_17_2 - x_17_2 <= 0
    ctr_83: y_18_2 - x_18_2 <= 0
    ctr_84: y_19_2 - x_19_2 <= 0
    ctr_85: y_0_3 - x_0_3 <= 0
    ctr_86: y_1_3 - x_1_3 <= 0
    ctr_87: y_2_3 - x_2_3 <= 0
    ctr_88: y_3_3 - x_3_3 <= 0
    ctr_89: y_4_3 - x_4_3 <= 0
    ctr_90: y_5_3 - x_5_3 <= 0
    ctr_91: y_6_3 - x_6_3 <= 0
    ctr_92: y_7_3 - x_7_3 <= 0
    ctr_93: y_8_3 - x_8_3 <= 0
    ctr_94: y_9_3 - x_9_3 <= 0
    ctr_95: y_10_3 - x_10_3 <= 0
    ctr_96: y_11_3 - x_11_3 <= 0
    ctr_97: y_12_3 - x_12_3 <= 0
    ctr_98: y_13_3 - x_13_3 <= 0
    ctr_99: y_14_3 - x_14_3 <= 0
    ctr_100: y_15_3 - x_15_3 <= 0
    ctr_101: y_16_3 - x_16_3 <= 0
    ctr_102: y_17_3 - x_17_3 <= 0
    ctr_103: y_18_3 - x_18_3 <= 0
    ctr_104: y_19_3 - x_19_3 <= 0
    ctr_105: y_0_4 - x_0_4 <= 0
    ctr_106: y_1_4 - x_1_4 <= 0
    ctr_107: y_2_4 - x_2_4 <= 0
    ctr_108: y_3_4 - x_3_4 <= 0
    ctr_109: y_4_4 - x_4_4 <= 0
    ctr_110: y_5_4 - x_5_4 <= 0
    ctr_111: y_6_4 - x_6_4 <= 0
    ctr_112: y_7_4 - x_7_4 <= 0
    ctr_113: y_8_4 - x_8_4 <= 0
    ctr_114: y_9_4 - x_9_4 <= 0
    ctr_115: y_10_4 - x_10_4 <= 0
    ctr_116: y_11_4 - x_11_4 <= 0
    ctr_117: y_12_4 - x_12_4 <= 0
    ctr_118: y_13_4 - x_13_4 <= 0
    ctr_119: y_14_4 - x_14_4 <= 0
    ctr_120: y_15_4 - x_15_4 <= 0
    ctr_121: y_16_4 - x_16_4 <= 0
    ctr_122: y_17_4 - x_17_4 <= 0
    ctr_123: y_18_4 - x_18_4 <= 0
    ctr_124: y_19_4 - x_19_4 <= 0
    ctr_125: x_0_0 - 50y_0_0 <= 0
    ctr_126: x_1_0 - 50y_1_0 <= 0
    ctr_127: x_2_0 - 50y_2_0 <= 0
    ctr_128: x_3_0 - 50y_3_0 <= 0
    ctr_129: x_4_0 - 50y_4_0 <= 0
    ctr_130: x_5_0 - 50y_5_0 <= 0
    ctr_131: x_6_0 - 50y_6_0 <= 0
    ctr_132: x_7_0 - 50y_7_0 <= 0
    ctr_133: x_8_0 - 50y_8_0 <= 0
    ctr_134: x_9_0 - 50y_9_0 <= 0
    ctr_135: x_10_0 - 50y_10_0 <= 0
    ctr_136: x_11_0 - 50y_11_0 <= 0
    ctr_137: x_12_0 - 50y_12_0 <= 0
    ctr_138: x_13_0 - 50y_13_0 <= 0
    ctr_139: x_14_0 - 50y_14_0 <= 0
    ctr_140: x_15_0 - 50y_15_0 <= 0
    ctr_141: x_16_0 - 50y_16_0 <= 0
    ctr_142: x_17_0 - 50y_17_0 <= 0
    ctr_143: x_18_0 - 50y_18_0 <= 0
    ctr_144: x_19_0 - 50y_19_0 <= 0
    ctr_145: x_0_1 - 50y_0_1 <= 0
    ctr_146: x_1_1 - 50y_1_1 <= 0
    ctr_147: x_2_1 - 50y_2_1 <= 0
    ctr_148: x_3_1 - 50y_3_1 <= 0
    ctr_149: x_4_1 - 50y_4_1 <= 0
    ctr_150: x_5_1 - 50y_5_1 <= 0
    ctr_151: x_6_1 - 50y_6_1 <= 0
    ctr_152: x_7_1 - 50y_7_1 <= 0
    ctr_153: x_8_1 - 50y_8_1 <= 0
    ctr_154: x_9_1 - 50y_9_1 <= 0
    ctr_155: x_10_1 - 50y_10_1 <= 0
    ctr_156: x_11_1 - 50y_11_1 <= 0
    ctr_157: x_12_1 - 50y_12_1 <= 0
    ctr_158: x_13_1 - 50y_13_1 <= 0
    ctr_159: x_14_1 - 50y_14_1 <= 0
    ctr_160: x_15_1 - 50y_15_1 <= 0
    ctr_161: x_16_1 - 50y_16_1 <= 0
    ctr_162: x_17_1 - 50y_17_1 <= 0
    ctr_163: x_18_1 - 50y_18_1 <= 0
    ctr_164: x_19_1 - 50y_19_1 <= 0
    ctr_165: x_0_2 - 50y_0_2 <= 0
    ctr_166: x_1_2 - 50y_1_2 <= 0
    ctr_167: x_2_2 - 50y_2_2 <= 0
    ctr_168: x_3_2 - 50y_3_2 <= 0
    ctr_169: x_4_2 - 50y_4_2 <= 0
    ctr_170: x_5_2 - 50y_5_2 <= 0
    ctr_171: x_6_2 - 50y_6_2 <= 0
    ctr_172: x_7_2 - 50y_7_2 <= 0
    ctr_173: x_8_2 - 50y_8_2 <= 0
    ctr_174: x_9_2 - 50y_9_2 <= 0
    ctr_175: x_10_2 - 50y_10_2 <= 0
    ctr_176: x_11_2 - 50y_11_2 <= 0
    ctr_177: x_12_2 - 50y_12_2 <= 0
    ctr_178: x_13_2 - 50y_13_2 <= 0
    ctr_179: x_14_2 - 50y_14_2 <= 0
    ctr_180: x_15_2 - 50y_15_2 <= 0
    ctr_181: x_16_2 - 50y_16_2 <= 0
    ctr_182: x_17_2 - 50y_17_2 <= 0
    ctr_183: x_18_2 - 50y_18_2 <= 0
    ctr_184: x_19_2 - 50y_19_2 <= 0
    ctr_185: x_0_3 - 50y_0_3 <= 0
    ctr_186: x_1_3 - 50y_1_3 <= 0
    ctr_187: x_2_3 - 50y_2_3 <= 0
    ctr_188: x_3_3 - 50y_3_3 <= 0
    ctr_189: x_4_3 - 50y_4_3 <= 0
    ctr_190: x_5_3 - 50y_5_3 <= 0
    ctr_191: x_6_3 - 50y_6_3 <= 0
    ctr_192: x_7_3 - 50y_7_3 <= 0
    ctr_193: x_8_3 - 50y_8_3 <= 0
    ctr_194: x_9_3 - 50y_9_3 <= 0
    ctr_195: x_10_3 - 50y_10_3 <= 0
    ctr_196: x_11_3 - 50y_11_3 <= 0
    ctr_197: x_12_3 - 50y_12_3 <= 0
    ctr_198: x_13_3 - 50y_13_3 <= 0
    ctr_199: x_14_3 - 50y_14_3 <= 0
    ctr_200: x_15_3 - 50y_15_3 <= 0
    ctr_201: x_16_3 - 50y_16_3 <= 0
    ctr_202: x_17_3 - 50y_17_3 <= 0
    ctr_203: x_18_3 - 50y_18_3 <= 0
    ctr_204: x_19_3 - 50y_19_3 <= 0
    ctr_205: x_0_4 - 50y_0_4 <= 0
    ctr_206: x_1_4 - 50y_1_4 <= 0
    ctr_207: x_2_4 - 50y_2_4 <= 0
    ctr_208: x_3_4 - 50y_3_4 <= 0
    ctr_209: x_4_4 - 50y_4_4 <= 0
    ctr_210: x_5_4 - 50y_5_4 <= 0
    ctr_211: x_6_4 - 50y_6_4 <= 0
    ctr_212: x_7_4 - 50y_7_4 <= 0
    ctr_213: x_8_4 - 50y_8_4 <= 0
    ctr_214: x_9_4 - 50y_9_4 <= 0
    ctr_215: x_10_4 - 50y_10_4 <= 0
    ctr_216: x_11_4 - 50y_11_4 <= 0
    ctr_217: x_12_4 - 50y_12_4 <= 0
    ctr_218: x_13_4 - 50y_13_4 <= 0
    ctr_219: x_14_4 - 50y_14_4 <= 0
    ctr_220: x_15_4 - 50y_15_4 <= 0
    ctr_221: x_16_4 - 50y_16_4 <= 0
    ctr_222: x_17_4 - 50y_17_4 <= 0
    ctr_223: x_18_4 - 50y_18_4 <= 0
    ctr_224: x_19_4 - 50y_19_4 <= 0
    ctr_225: y_0_0 + y_1_0 + y_2_0 + y_3_0 + y_4_0 + y_5_0 + y_6_0 + y_7_0 + y_8_0 + y_9_0 + y_10_0 + y_11_0 + y_12_0 + y_13_0 + y_14_0 + y_15_0 + y_16_0 + y_17_0 + y_18_0 + y_19_0 <= 20
    ctr_226: y_0_1 + y_1_1 + y_2_1 + y_3_1 + y_4_1 + y_5_1 + y_6_1 + y_7_1 + y_8_1 + y_9_1 + y_10_1 + y_11_1 + y_12_1 + y_13_1 + y_14_1 + y_15_1 + y_16_1 + y_17_1 + y_18_1 + y_19_1 <= 20
    ctr_227: y_0_2 + y_1_2 + y_2_2 + y_3_2 + y_4_2 + y_5_2 + y_6_2 + y_7_2 + y_8_2 + y_9_2 + y_10_2 + y_11_2 + y_12_2 + y_13_2 + y_14_2 + y_15_2 + y_16_2 + y_17_2 + y_18_2 + y_19_2 <= 3
    ctr_228: y_0_3 + y_1_3 + y_2_3 + y_3_3 + y_4_3 + y_5_3 + y_6_3 + y_7_3 + y_8_3 + y_9_3 + y_10_3 + y_11_3 + y_12_3 + y_13_3 + y_14_3 + y_15_3 + y_16_3 + y_17_3 + y_18_3 + y_19_3 <= 20
    ctr_229: y_0_4 + y_1_4 + y_2_4 + y_3_4 + y_4_4 + y_5_4 + y_6_4 + y_7_4 + y_8_4 + y_9_4 + y_10_4 + y_11_4 + y_12_4 + y_13_4 + y_14_4 + y_15_4 + y_16_4 + y_17_4 + y_18_4 + y_19_4 <= 1
Binary 
     z_0
     z_1
     z_2
     z_3
     z_4
     z_5
     z_6
     z_7
     z_8
     z_9
     z_10
     z_11
     z_12
     z_13
     z_14
     z_15
     z_16
     z_17
     z_18
     z_19
     y_0_0
     y_0_1
     y_0_2
     y_0_3
     y_0_4
     y_1_0
     y_1_1
     y_1_2
     y_1_3
     y_1_4
     y_2_0
     y_2_1
     y_2_2
     y_2_3
     y_2_4
     y_3_0
     y_3_1
     y_3_2
     y_3_3
     y_3_4
     y_4_0
     y_4_1
     y_4_2
     y_4_3
     y_4_4
     y_5_0
     y_5_1
     y_5_2
     y_5_3
     y_5_4
     y_6_0
     y_6_1
     y_6_2
     y_6_3
     y_6_4
     y_7_0
     y_7_1
     y_7_2
     y_7_3
     y_7_4
     y_8_0
     y_8_1
     y_8_2
     y_8_3
     y_8_4
     y_9_0
     y_9_1
     y_9_2
     y_9_3
     y_9_4
     y_10_0
     y_10_1
     y_10_2
     y_10_3
     y_10_4
     y_11_0
     y_11_1
     y_11_2
     y_11_3
     y_11_4
     y_12_0
     y_12_1
     y_12_2
     y_12_3
     y_12_4
     y_13_0
     y_13_1
     y_13_2
     y_13_3
     y_13_4
     y_14_0
     y_14_1
     y_14_2
     y_14_3
     y_14_4
     y_15_0
     y_15_1
     y_15_2
     y_15_3
     y_15_4
     y_16_0
     y_16_1
     y_16_2
     y_16_3
     y_16_4
     y_17_0
     y_17_1
     y_17_2
     y_17_3
     y_17_4
     y_18_0
     y_18_1
     y_18_2
     y_18_3
     y_18_4
     y_19_0
     y_19_1
     y_19_2
     y_19_3
     y_19_4
Integer 
     x_0_0
     x_0_1
     x_0_2
     x_0_3
     x_0_4
     x_1_0
     x_1_1
     x_1_2
     x_1_3
     x_1_4
     x_2_0
     x_2_1
     x_2_2
     x_2_3
     x_2_4
     x_3_0
     x_3_1
     x_3_2
     x_3_3
     x_3_4
     x_4_0
     x_4_1
     x_4_2
     x_4_3
     x_4_4
     x_5_0
     x_5_1
     x_5_2
     x_5_3
     x_5_4
     x_6_0
     x_6_1
     x_6_2
     x_6_3
     x_6_4
     x_7_0
     x_7_1
     x_7_2
     x_7_3
     x_7_4
     x_8_0
     x_8_1
     x_8_2
     x_8_3
     x_8_4
     x_9_0
     x_9_1
     x_9_2
     x_9_3
     x_9_4
     x_10_0
     x_10_1
     x_10_2
     x_10_3
     x_10_4
     x_11_0
     x_11_1
     x_11_2
     x_11_3
     x_11_4
     x_12_0
     x_12_1
     x_12_2
     x_12_3
     x_12_4
     x_13_0
     x_13_1
     x_13_2
     x_13_3
     x_13_4
     x_14_0
     x_14_1
     x_14_2
     x_14_3
     x_14_4
     x_15_0
     x_15_1
     x_15_2
     x_15_3
     x_15_4
     x_16_0
     x_16_1
     x_16_2
     x_16_3
     x_16_4
     x_17_0
     x_17_1
     x_17_2
     x_17_3
     x_17_4
     x_18_0
     x_18_1
     x_18_2
     x_18_3
     x_18_4
     x_19_0
     x_19_1
     x_19_2
     x_19_3
     x_19_4
End